\ Model Transportation Problem with Seasonal Variations
\ LP format - for model browsing. Use MPS format to capture full model detail.
Minimize
  53.0222379886035 x[0,0,0] + 53.0222379886035 x[0,0,1]
   + 53.0222379886035 x[0,0,2] + 53.0222379886035 x[0,0,3]
   + 32.06150727504389 x[0,1,0] + 32.06150727504389 x[0,1,1]
   + 32.06150727504389 x[0,1,2] + 32.06150727504389 x[0,1,3]
   + 18.14505996187545 x[0,2,0] + 18.14505996187545 x[0,2,1]
   + 18.14505996187545 x[0,2,2] + 18.14505996187545 x[0,2,3]
   + 91.30029193147703 x[0,3,0] + 91.30029193147703 x[0,3,1]
   + 91.30029193147703 x[0,3,2] + 91.30029193147703 x[0,3,3]
   + 34.89037475050277 x[0,4,0] + 34.89037475050277 x[0,4,1]
   + 34.89037475050277 x[0,4,2] + 34.89037475050277 x[0,4,3]
   + 36.07441187583647 x[0,5,0] + 36.07441187583647 x[0,5,1]
   + 36.07441187583647 x[0,5,2] + 36.07441187583647 x[0,5,3]
   + 77.42698863072533 x[0,6,0] + 77.42698863072533 x[0,6,1]
   + 77.42698863072533 x[0,6,2] + 77.42698863072533 x[0,6,3]
   + 72.37153157140197 x[1,0,0] + 72.37153157140197 x[1,0,1]
   + 72.37153157140197 x[1,0,2] + 72.37153157140197 x[1,0,3]
   + 64.68760089994669 x[1,1,0] + 64.68760089994669 x[1,1,1]
   + 64.68760089994669 x[1,1,2] + 64.68760089994669 x[1,1,3]
   + 69.63801769295226 x[1,2,0] + 69.63801769295226 x[1,2,1]
   + 69.63801769295226 x[1,2,2] + 69.63801769295226 x[1,2,3]
   + 61.3975814277964 x[1,3,0] + 61.3975814277964 x[1,3,1]
   + 61.3975814277964 x[1,3,2] + 61.3975814277964 x[1,3,3]
   + 20.03415274453463 x[1,4,0] + 20.03415274453463 x[1,4,1]
   + 20.03415274453463 x[1,4,2] + 20.03415274453463 x[1,4,3]
   + 25.40539441720868 x[1,5,0] + 25.40539441720868 x[1,5,1]
   + 25.40539441720868 x[1,5,2] + 25.40539441720868 x[1,5,3]
   + 56.25057842993301 x[1,6,0] + 56.25057842993301 x[1,6,1]
   + 56.25057842993301 x[1,6,2] + 56.25057842993301 x[1,6,3]
   + 23.26183676128885 x[2,0,0] + 23.26183676128885 x[2,0,1]
   + 23.26183676128885 x[2,0,2] + 23.26183676128885 x[2,0,3]
   + 97.31815213146633 x[2,1,0] + 97.31815213146633 x[2,1,1]
   + 97.31815213146633 x[2,1,2] + 97.31815213146633 x[2,1,3]
   + 30.46384196241388 x[2,2,0] + 30.46384196241388 x[2,2,1]
   + 30.46384196241388 x[2,2,2] + 30.46384196241388 x[2,2,3]
   + 29.61140960294897 x[2,3,0] + 29.61140960294897 x[2,3,1]
   + 29.61140960294897 x[2,3,2] + 29.61140960294897 x[2,3,3]
   + 21.52050169060939 x[2,4,0] + 21.52050169060939 x[2,4,1]
   + 21.52050169060939 x[2,4,2] + 21.52050169060939 x[2,4,3]
   + 70.79383771427948 x[2,5,0] + 70.79383771427948 x[2,5,1]
   + 70.79383771427948 x[2,5,2] + 70.79383771427948 x[2,5,3]
   + 32.38703375682636 x[2,6,0] + 32.38703375682636 x[2,6,1]
   + 32.38703375682636 x[2,6,2] + 32.38703375682636 x[2,6,3]
   + 35.53151424592935 x[3,0,0] + 35.53151424592935 x[3,0,1]
   + 35.53151424592935 x[3,0,2] + 35.53151424592935 x[3,0,3]
   + 93.43633710230925 x[3,1,0] + 93.43633710230925 x[3,1,1]
   + 93.43633710230925 x[3,1,2] + 93.43633710230925 x[3,1,3]
   + 79.74513024423102 x[3,2,0] + 79.74513024423102 x[3,2,1]
   + 79.74513024423102 x[3,2,2] + 79.74513024423102 x[3,2,3]
   + 28.07229613878688 x[3,3,0] + 28.07229613878688 x[3,3,1]
   + 28.07229613878688 x[3,3,2] + 28.07229613878688 x[3,3,3]
   + 13.06553646753879 x[3,4,0] + 13.06553646753879 x[3,4,1]
   + 13.06553646753879 x[3,4,2] + 13.06553646753879 x[3,4,3]
   + 67.98560233247203 x[3,5,0] + 67.98560233247203 x[3,5,1]
   + 67.98560233247203 x[3,5,2] + 67.98560233247203 x[3,5,3]
   + 38.58972435206387 x[3,6,0] + 38.58972435206387 x[3,6,1]
   + 38.58972435206387 x[3,6,2] + 38.58972435206387 x[3,6,3]
   + 98.03589319481486 x[4,0,0] + 98.03589319481486 x[4,0,1]
   + 98.03589319481486 x[4,0,2] + 98.03589319481486 x[4,0,3]
   + 82.01936855292567 x[4,1,0] + 82.01936855292567 x[4,1,1]
   + 82.01936855292567 x[4,1,2] + 82.01936855292567 x[4,1,3]
   + 95.50627747575467 x[4,2,0] + 95.50627747575467 x[4,2,1]
   + 95.50627747575467 x[4,2,2] + 95.50627747575467 x[4,2,3]
   + 80.65696756170047 x[4,3,0] + 80.65696756170047 x[4,3,1]
   + 80.65696756170047 x[4,3,2] + 80.65696756170047 x[4,3,3]
   + 29.75481254730062 x[4,4,0] + 29.75481254730062 x[4,4,1]
   + 29.75481254730062 x[4,4,2] + 29.75481254730062 x[4,4,3]
   + 29.47540381979985 x[4,5,0] + 29.47540381979985 x[4,5,1]
   + 29.47540381979985 x[4,5,2] + 29.47540381979985 x[4,5,3]
   + 71.69998746234114 x[4,6,0] + 71.69998746234114 x[4,6,1]
   + 71.69998746234114 x[4,6,2] + 71.69998746234114 x[4,6,3]
   + 35.28998789546603 x[5,0,0] + 35.28998789546603 x[5,0,1]
   + 35.28998789546603 x[5,0,2] + 35.28998789546603 x[5,0,3]
   + 44.7952350746187 x[5,1,0] + 44.7952350746187 x[5,1,1]
   + 44.7952350746187 x[5,1,2] + 44.7952350746187 x[5,1,3]
   + 26.38795357187472 x[5,2,0] + 26.38795357187472 x[5,2,1]
   + 26.38795357187472 x[5,2,2] + 26.38795357187472 x[5,2,3]
   + 48.42884703863184 x[5,3,0] + 48.42884703863184 x[5,3,1]
   + 48.42884703863184 x[5,3,2] + 48.42884703863184 x[5,3,3]
   + 21.00473271285905 x[5,4,0] + 21.00473271285905 x[5,4,1]
   + 21.00473271285905 x[5,4,2] + 21.00473271285905 x[5,4,3]
   + 54.31921444715663 x[5,5,0] + 54.31921444715663 x[5,5,1]
   + 54.31921444715663 x[5,5,2] + 54.31921444715663 x[5,5,3]
   + 93.36936944454746 x[5,6,0] + 93.36936944454746 x[5,6,1]
   + 93.36936944454746 x[5,6,2] + 93.36936944454746 x[5,6,3]
   + 69.92095876403545 x[6,0,0] + 69.92095876403545 x[6,0,1]
   + 69.92095876403545 x[6,0,2] + 69.92095876403545 x[6,0,3]
   + 14.59002252529137 x[6,1,0] + 14.59002252529137 x[6,1,1]
   + 14.59002252529137 x[6,1,2] + 14.59002252529137 x[6,1,3]
   + 61.95202640703474 x[6,2,0] + 61.95202640703474 x[6,2,1]
   + 61.95202640703474 x[6,2,2] + 61.95202640703474 x[6,2,3]
   + 59.0962193585107 x[6,3,0] + 59.0962193585107 x[6,3,1]
   + 59.0962193585107 x[6,3,2] + 59.0962193585107 x[6,3,3]
   + 25.00334580261839 x[6,4,0] + 25.00334580261839 x[6,4,1]
   + 25.00334580261839 x[6,4,2] + 25.00334580261839 x[6,4,3]
   + 67.31356252441729 x[6,5,0] + 67.31356252441729 x[6,5,1]
   + 67.31356252441729 x[6,5,2] + 67.31356252441729 x[6,5,3]
   + 53.57310748354712 x[6,6,0] + 53.57310748354712 x[6,6,1]
   + 53.57310748354712 x[6,6,2] + 53.57310748354712 x[6,6,3]
   + 64.15651276745513 x[7,0,0] + 64.15651276745513 x[7,0,1]
   + 64.15651276745513 x[7,0,2] + 64.15651276745513 x[7,0,3]
   + 6.196619577106816 x[7,1,0] + 6.196619577106816 x[7,1,1]
   + 6.196619577106816 x[7,1,2] + 6.196619577106816 x[7,1,3]
   + 41.9168352387776 x[7,2,0] + 41.9168352387776 x[7,2,1]
   + 41.9168352387776 x[7,2,2] + 41.9168352387776 x[7,2,3]
   + 72.01844756877412 x[7,3,0] + 72.01844756877412 x[7,3,1]
   + 72.01844756877412 x[7,3,2] + 72.01844756877412 x[7,3,3]
   + 10.95394557295744 x[7,4,0] + 10.95394557295744 x[7,4,1]
   + 10.95394557295744 x[7,4,2] + 10.95394557295744 x[7,4,3]
   + 77.30583975172964 x[7,5,0] + 77.30583975172964 x[7,5,1]
   + 77.30583975172964 x[7,5,2] + 77.30583975172964 x[7,5,3]
   + 1.512963194305873 x[7,6,0] + 1.512963194305873 x[7,6,1]
   + 1.512963194305873 x[7,6,2] + 1.512963194305873 x[7,6,3]
   + 55.48490401218205 x[8,0,0] + 55.48490401218205 x[8,0,1]
   + 55.48490401218205 x[8,0,2] + 55.48490401218205 x[8,0,3]
   + 92.9808683368278 x[8,1,0] + 92.9808683368278 x[8,1,1]
   + 92.9808683368278 x[8,1,2] + 92.9808683368278 x[8,1,3]
   + 41.28383770314147 x[8,2,0] + 41.28383770314147 x[8,2,1]
   + 41.28383770314147 x[8,2,2] + 41.28383770314147 x[8,2,3]
   + 93.568177761019 x[8,3,0] + 93.568177761019 x[8,3,1]
   + 93.568177761019 x[8,3,2] + 93.568177761019 x[8,3,3]
   + 87.96156252990859 x[8,4,0] + 87.96156252990859 x[8,4,1]
   + 87.96156252990859 x[8,4,2] + 87.96156252990859 x[8,4,3]
   + 48.26740352364875 x[8,5,0] + 48.26740352364875 x[8,5,1]
   + 48.26740352364875 x[8,5,2] + 48.26740352364875 x[8,5,3]
   + 20.74614149209257 x[8,6,0] + 20.74614149209257 x[8,6,1]
   + 20.74614149209257 x[8,6,2] + 20.74614149209257 x[8,6,3]
   + 96.42748985020263 x[9,0,0] + 96.42748985020263 x[9,0,1]
   + 96.42748985020263 x[9,0,2] + 96.42748985020263 x[9,0,3]
   + 32.7956025097975 x[9,1,0] + 32.7956025097975 x[9,1,1]
   + 32.7956025097975 x[9,1,2] + 32.7956025097975 x[9,1,3]
   + 64.94389387113671 x[9,2,0] + 64.94389387113671 x[9,2,1]
   + 64.94389387113671 x[9,2,2] + 64.94389387113671 x[9,2,3]
   + 90.88575891482662 x[9,3,0] + 90.88575891482662 x[9,3,1]
   + 90.88575891482662 x[9,3,2] + 90.88575891482662 x[9,3,3]
   + 9.856611330640115 x[9,4,0] + 9.856611330640115 x[9,4,1]
   + 9.856611330640115 x[9,4,2] + 9.856611330640115 x[9,4,3]
   + 57.83920196436195 x[9,5,0] + 57.83920196436195 x[9,5,1]
   + 57.83920196436195 x[9,5,2] + 57.83920196436195 x[9,5,3]
   + 53.98007541246686 x[9,6,0] + 53.98007541246686 x[9,6,1]
   + 53.98007541246686 x[9,6,2] + 53.98007541246686 x[9,6,3]
Subject To
 ReservoirCapacity_0_0: x[0,0,0] + x[0,1,0] + x[0,2,0] + x[0,3,0]
   + x[0,4,0] + x[0,5,0] + x[0,6,0] <= 7123.587761069747
 ReservoirCapacity_0_1: x[0,0,1] + x[0,1,1] + x[0,2,1] + x[0,3,1]
   + x[0,4,1] + x[0,5,1] + x[0,6,1] <= 2069.299177512306
 ReservoirCapacity_0_2: x[0,0,2] + x[0,1,2] + x[0,2,2] + x[0,3,2]
   + x[0,4,2] + x[0,5,2] + x[0,6,2] <= 9775.745338724057
 ReservoirCapacity_0_3: x[0,0,3] + x[0,1,3] + x[0,2,3] + x[0,3,3]
   + x[0,4,3] + x[0,5,3] + x[0,6,3] <= 4545.133414557464
 ReservoirCapacity_1_0: x[1,0,0] + x[1,1,0] + x[1,2,0] + x[1,3,0]
   + x[1,4,0] + x[1,5,0] + x[1,6,0] <= 8154.075055428512
 ReservoirCapacity_1_1: x[1,0,1] + x[1,1,1] + x[1,2,1] + x[1,3,1]
   + x[1,4,1] + x[1,5,1] + x[1,6,1] <= 4051.767699573088
 ReservoirCapacity_1_2: x[1,0,2] + x[1,1,2] + x[1,2,2] + x[1,3,2]
   + x[1,4,2] + x[1,5,2] + x[1,6,2] <= 9450.537102598379
 ReservoirCapacity_1_3: x[1,0,3] + x[1,1,3] + x[1,2,3] + x[1,3,3]
   + x[1,4,3] + x[1,5,3] + x[1,6,3] <= 7794.686550635145
 ReservoirCapacity_2_0: x[2,0,0] + x[2,1,0] + x[2,2,0] + x[2,3,0]
   + x[2,4,0] + x[2,5,0] + x[2,6,0] <= 2791.52093397205
 ReservoirCapacity_2_1: x[2,0,1] + x[2,1,1] + x[2,2,1] + x[2,3,1]
   + x[2,4,1] + x[2,5,1] + x[2,6,1] <= 5582.102646026639
 ReservoirCapacity_2_2: x[2,0,2] + x[2,1,2] + x[2,2,2] + x[2,3,2]
   + x[2,4,2] + x[2,5,2] + x[2,6,2] <= 5500.701132135795
 ReservoirCapacity_2_3: x[2,0,3] + x[2,1,3] + x[2,2,3] + x[2,3,3]
   + x[2,4,3] + x[2,5,3] + x[2,6,3] <= 1407.730172203673
 ReservoirCapacity_3_0: x[3,0,0] + x[3,1,0] + x[3,2,0] + x[3,3,0]
   + x[3,4,0] + x[3,5,0] + x[3,6,0] <= 2233.327362107684
 ReservoirCapacity_3_1: x[3,0,1] + x[3,1,1] + x[3,2,1] + x[3,3,1]
   + x[3,4,1] + x[3,5,1] + x[3,6,1] <= 3997.366348174905
 ReservoirCapacity_3_2: x[3,0,2] + x[3,1,2] + x[3,2,2] + x[3,3,2]
   + x[3,4,2] + x[3,5,2] + x[3,6,2] <= 5263.69735355671
 ReservoirCapacity_3_3: x[3,0,3] + x[3,1,3] + x[3,2,3] + x[3,3,3]
   + x[3,4,3] + x[3,5,3] + x[3,6,3] <= 5112.897033545865
 ReservoirCapacity_4_0: x[4,0,0] + x[4,1,0] + x[4,2,0] + x[4,3,0]
   + x[4,4,0] + x[4,5,0] + x[4,6,0] <= 6456.344701634237
 ReservoirCapacity_4_1: x[4,0,1] + x[4,1,1] + x[4,2,1] + x[4,3,1]
   + x[4,4,1] + x[4,5,1] + x[4,6,1] <= 5639.551589325285
 ReservoirCapacity_4_2: x[4,0,2] + x[4,1,2] + x[4,2,2] + x[4,3,2]
   + x[4,4,2] + x[4,5,2] + x[4,6,2] <= 3951.692628728736
 ReservoirCapacity_4_3: x[4,0,3] + x[4,1,3] + x[4,2,3] + x[4,3,3]
   + x[4,4,3] + x[4,5,3] + x[4,6,3] <= 6517.613089582102
 ReservoirCapacity_5_0: x[5,0,0] + x[5,1,0] + x[5,2,0] + x[5,3,0]
   + x[5,4,0] + x[5,5,0] + x[5,6,0] <= 2462.518412892455
 ReservoirCapacity_5_1: x[5,0,1] + x[5,1,1] + x[5,2,1] + x[5,3,1]
   + x[5,4,1] + x[5,5,1] + x[5,6,1] <= 9915.541638050261
 ReservoirCapacity_5_2: x[5,0,2] + x[5,1,2] + x[5,2,2] + x[5,3,2]
   + x[5,4,2] + x[5,5,2] + x[5,6,2] <= 7653.874245162438
 ReservoirCapacity_5_3: x[5,0,3] + x[5,1,3] + x[5,2,3] + x[5,3,3]
   + x[5,4,3] + x[5,5,3] + x[5,6,3] <= 3693.109082754864
 ReservoirCapacity_6_0: x[6,0,0] + x[6,1,0] + x[6,2,0] + x[6,3,0]
   + x[6,4,0] + x[6,5,0] + x[6,6,0] <= 4027.361069365105
 ReservoirCapacity_6_1: x[6,0,1] + x[6,1,1] + x[6,2,1] + x[6,3,1]
   + x[6,4,1] + x[6,5,1] + x[6,6,1] <= 8454.604473616382
 ReservoirCapacity_6_2: x[6,0,2] + x[6,1,2] + x[6,2,2] + x[6,3,2]
   + x[6,4,2] + x[6,5,2] + x[6,6,2] <= 5791.058468882888
 ReservoirCapacity_6_3: x[6,0,3] + x[6,1,3] + x[6,2,3] + x[6,3,3]
   + x[6,4,3] + x[6,5,3] + x[6,6,3] <= 7378.658257918941
 ReservoirCapacity_7_0: x[7,0,0] + x[7,1,0] + x[7,2,0] + x[7,3,0]
   + x[7,4,0] + x[7,5,0] + x[7,6,0] <= 3698.115082636723
 ReservoirCapacity_7_1: x[7,0,1] + x[7,1,1] + x[7,2,1] + x[7,3,1]
   + x[7,4,1] + x[7,5,1] + x[7,6,1] <= 8341.739499194417
 ReservoirCapacity_7_2: x[7,0,2] + x[7,1,2] + x[7,2,2] + x[7,3,2]
   + x[7,4,2] + x[7,5,2] + x[7,6,2] <= 4315.220288791927
 ReservoirCapacity_7_3: x[7,0,3] + x[7,1,3] + x[7,2,3] + x[7,3,3]
   + x[7,4,3] + x[7,5,3] + x[7,6,3] <= 7064.257532257149
 ReservoirCapacity_8_0: x[8,0,0] + x[8,1,0] + x[8,2,0] + x[8,3,0]
   + x[8,4,0] + x[8,5,0] + x[8,6,0] <= 9819.082280612456
 ReservoirCapacity_8_1: x[8,0,1] + x[8,1,1] + x[8,2,1] + x[8,3,1]
   + x[8,4,1] + x[8,5,1] + x[8,6,1] <= 6253.319276639077
 ReservoirCapacity_8_2: x[8,0,2] + x[8,1,2] + x[8,2,2] + x[8,3,2]
   + x[8,4,2] + x[8,5,2] + x[8,6,2] <= 8170.793325371324
 ReservoirCapacity_8_3: x[8,0,3] + x[8,1,3] + x[8,2,3] + x[8,3,3]
   + x[8,4,3] + x[8,5,3] + x[8,6,3] <= 7527.917912966698
 ReservoirCapacity_9_0: x[9,0,0] + x[9,1,0] + x[9,2,0] + x[9,3,0]
   + x[9,4,0] + x[9,5,0] + x[9,6,0] <= 7192.392860824945
 ReservoirCapacity_9_1: x[9,0,1] + x[9,1,1] + x[9,2,1] + x[9,3,1]
   + x[9,4,1] + x[9,5,1] + x[9,6,1] <= 1239.824394674499
 ReservoirCapacity_9_2: x[9,0,2] + x[9,1,2] + x[9,2,2] + x[9,3,2]
   + x[9,4,2] + x[9,5,2] + x[9,6,2] <= 5271.311926765545
 ReservoirCapacity_9_3: x[9,0,3] + x[9,1,3] + x[9,2,3] + x[9,3,3]
   + x[9,4,3] + x[9,5,3] + x[9,6,3] <= 9703.636265548457
 FieldRequirement_0_0: x[0,0,0] + x[1,0,0] + x[2,0,0] + x[3,0,0] + x[4,0,0]
   + x[5,0,0] + x[6,0,0] + x[7,0,0] + x[8,0,0] + x[9,0,0]
   >= 4023.067961441396
 FieldRequirement_0_1: x[0,0,1] + x[1,0,1] + x[2,0,1] + x[3,0,1] + x[4,0,1]
   + x[5,0,1] + x[6,0,1] + x[7,0,1] + x[8,0,1] + x[9,0,1]
   >= 3992.729113274324
 FieldRequirement_0_2: x[0,0,2] + x[1,0,2] + x[2,0,2] + x[3,0,2] + x[4,0,2]
   + x[5,0,2] + x[6,0,2] + x[7,0,2] + x[8,0,2] + x[9,0,2]
   >= 3099.354781388823
 FieldRequirement_0_3: x[0,0,3] + x[1,0,3] + x[2,0,3] + x[3,0,3] + x[4,0,3]
   + x[5,0,3] + x[6,0,3] + x[7,0,3] + x[8,0,3] + x[9,0,3]
   >= 3746.30050533338
 FieldRequirement_1_0: x[0,1,0] + x[1,1,0] + x[2,1,0] + x[3,1,0] + x[4,1,0]
   + x[5,1,0] + x[6,1,0] + x[7,1,0] + x[8,1,0] + x[9,1,0]
   >= 3125.85474671438
 FieldRequirement_1_1: x[0,1,1] + x[1,1,1] + x[2,1,1] + x[3,1,1] + x[4,1,1]
   + x[5,1,1] + x[6,1,1] + x[7,1,1] + x[8,1,1] + x[9,1,1]
   >= 1267.304277859967
 FieldRequirement_1_2: x[0,1,2] + x[1,1,2] + x[2,1,2] + x[3,1,2] + x[4,1,2]
   + x[5,1,2] + x[6,1,2] + x[7,1,2] + x[8,1,2] + x[9,1,2]
   >= 3330.613585154136
 FieldRequirement_1_3: x[0,1,3] + x[1,1,3] + x[2,1,3] + x[3,1,3] + x[4,1,3]
   + x[5,1,3] + x[6,1,3] + x[7,1,3] + x[8,1,3] + x[9,1,3]
   >= 3288.811124754902
 FieldRequirement_2_0: x[0,2,0] + x[1,2,0] + x[2,2,0] + x[3,2,0] + x[4,2,0]
   + x[5,2,0] + x[6,2,0] + x[7,2,0] + x[8,2,0] + x[9,2,0]
   >= 4285.252062312189
 FieldRequirement_2_1: x[0,2,1] + x[1,2,1] + x[2,2,1] + x[3,2,1] + x[4,2,1]
   + x[5,2,1] + x[6,2,1] + x[7,2,1] + x[8,2,1] + x[9,2,1]
   >= 1164.990687351493
 FieldRequirement_2_2: x[0,2,2] + x[1,2,2] + x[2,2,2] + x[3,2,2] + x[4,2,2]
   + x[5,2,2] + x[6,2,2] + x[7,2,2] + x[8,2,2] + x[9,2,2]
   >= 3563.271027728055
 FieldRequirement_2_3: x[0,2,3] + x[1,2,3] + x[2,2,3] + x[3,2,3] + x[4,2,3]
   + x[5,2,3] + x[6,2,3] + x[7,2,3] + x[8,2,3] + x[9,2,3]
   >= 642.0673100394472
 FieldRequirement_3_0: x[0,3,0] + x[1,3,0] + x[2,3,0] + x[3,3,0] + x[4,3,0]
   + x[5,3,0] + x[6,3,0] + x[7,3,0] + x[8,3,0] + x[9,3,0]
   >= 4766.923268529356
 FieldRequirement_3_1: x[0,3,1] + x[1,3,1] + x[2,3,1] + x[3,3,1] + x[4,3,1]
   + x[5,3,1] + x[6,3,1] + x[7,3,1] + x[8,3,1] + x[9,3,1]
   >= 994.5298460016359
 FieldRequirement_3_2: x[0,3,2] + x[1,3,2] + x[2,3,2] + x[3,3,2] + x[4,3,2]
   + x[5,3,2] + x[6,3,2] + x[7,3,2] + x[8,3,2] + x[9,3,2]
   >= 585.2181537797566
 FieldRequirement_3_3: x[0,3,3] + x[1,3,3] + x[2,3,3] + x[3,3,3] + x[4,3,3]
   + x[5,3,3] + x[6,3,3] + x[7,3,3] + x[8,3,3] + x[9,3,3]
   >= 1911.616175506348
 FieldRequirement_4_0: x[0,4,0] + x[1,4,0] + x[2,4,0] + x[3,4,0] + x[4,4,0]
   + x[5,4,0] + x[6,4,0] + x[7,4,0] + x[8,4,0] + x[9,4,0]
   >= 1181.440661537054
 FieldRequirement_4_1: x[0,4,1] + x[1,4,1] + x[2,4,1] + x[3,4,1] + x[4,4,1]
   + x[5,4,1] + x[6,4,1] + x[7,4,1] + x[8,4,1] + x[9,4,1]
   >= 3607.251174133365
 FieldRequirement_4_2: x[0,4,2] + x[1,4,2] + x[2,4,2] + x[3,4,2] + x[4,4,2]
   + x[5,4,2] + x[6,4,2] + x[7,4,2] + x[8,4,2] + x[9,4,2]
   >= 2346.698341952173
 FieldRequirement_4_3: x[0,4,3] + x[1,4,3] + x[2,4,3] + x[3,4,3] + x[4,4,3]
   + x[5,4,3] + x[6,4,3] + x[7,4,3] + x[8,4,3] + x[9,4,3]
   >= 3987.375358131909
 FieldRequirement_5_0: x[0,5,0] + x[1,5,0] + x[2,5,0] + x[3,5,0] + x[4,5,0]
   + x[5,5,0] + x[6,5,0] + x[7,5,0] + x[8,5,0] + x[9,5,0]
   >= 4642.344274537448
 FieldRequirement_5_1: x[0,5,1] + x[1,5,1] + x[2,5,1] + x[3,5,1] + x[4,5,1]
   + x[5,5,1] + x[6,5,1] + x[7,5,1] + x[8,5,1] + x[9,5,1]
   >= 4427.679690105442
 FieldRequirement_5_2: x[0,5,2] + x[1,5,2] + x[2,5,2] + x[3,5,2] + x[4,5,2]
   + x[5,5,2] + x[6,5,2] + x[7,5,2] + x[8,5,2] + x[9,5,2]
   >= 3811.267720709066
 FieldRequirement_5_3: x[0,5,3] + x[1,5,3] + x[2,5,3] + x[3,5,3] + x[4,5,3]
   + x[5,5,3] + x[6,5,3] + x[7,5,3] + x[8,5,3] + x[9,5,3]
   >= 780.2657870649438
 FieldRequirement_6_0: x[0,6,0] + x[1,6,0] + x[2,6,0] + x[3,6,0] + x[4,6,0]
   + x[5,6,0] + x[6,6,0] + x[7,6,0] + x[8,6,0] + x[9,6,0]
   >= 1121.371186033446
 FieldRequirement_6_1: x[0,6,1] + x[1,6,1] + x[2,6,1] + x[3,6,1] + x[4,6,1]
   + x[5,6,1] + x[6,6,1] + x[7,6,1] + x[8,6,1] + x[9,6,1]
   >= 1433.037672370601
 FieldRequirement_6_2: x[0,6,2] + x[1,6,2] + x[2,6,2] + x[3,6,2] + x[4,6,2]
   + x[5,6,2] + x[6,6,2] + x[7,6,2] + x[8,6,2] + x[9,6,2]
   >= 1962.722904917247
 FieldRequirement_6_3: x[0,6,3] + x[1,6,3] + x[2,6,3] + x[3,6,3] + x[4,6,3]
   + x[5,6,3] + x[6,6,3] + x[7,6,3] + x[8,6,3] + x[9,6,3]
   >= 3480.020598714571
Bounds
End
